
******************************************************************************
This program contains Ipopt, a library for large-scale nonlinear optimization.
 Ipopt is released as open source code under the Eclipse Public License (EPL).
         For more information visit http://projects.coin-or.org/Ipopt
******************************************************************************

This is Ipopt version 3.12.4, running with linear solver mumps.
NOTE: Other linear solvers might be more efficient (see Ipopt documentation).

Number of nonzeros in equality constraint Jacobian...:        0
Number of nonzeros in inequality constraint Jacobian.:        0
Number of nonzeros in Lagrangian Hessian.............:        0

Total number of variables............................:       51
                     variables with only lower bounds:        0
                variables with lower and upper bounds:        0
                     variables with only upper bounds:        0
Total number of equality constraints.................:        0
Total number of inequality constraints...............:        0
        inequality constraints with only lower bounds:        0
   inequality constraints with lower and upper bounds:        0
        inequality constraints with only upper bounds:        0

iter    objective    inf_pr   inf_du lg(mu)  ||d||  lg(rg) alpha_du alpha_pr  ls
   0 3.1754850e-003 0.00e+000 3.16e-002   0.0 0.00e+000    -  0.00e+000 0.00e+000   0
   1 2.7201639e-003 0.00e+000 2.59e-002 -11.0 3.16e-002    -  1.00e+000 1.00e+000f  1
   2 1.8040031e-003 0.00e+000 3.60e-004 -11.0 1.42e-001    -  1.00e+000 1.00e+000f  1
   3 1.8039903e-003 0.00e+000 2.54e-004 -11.0 2.03e-003    -  1.00e+000 5.00e-001f  2
   4 1.8039903e-003 0.00e+000 2.54e-004 -11.0 2.44e-003    -  1.00e+000 5.82e-011f 35
   5 1.8039903e-003 0.00e+000 2.54e-004 -11.0 2.41e-003    -  1.00e+000 2.91e-011f 36
   6 1.8039903e-003 0.00e+000 2.54e-004 -11.0 2.41e-003    -  1.00e+000 3.64e-012f 39
   7 1.8039903e-003 0.00e+000 2.54e-004 -11.0 2.41e-003    -  1.00e+000 1.82e-012f 40
   8 1.8039903e-003 0.00e+000 2.54e-004 -11.0 2.41e-003    -  1.00e+000 2.84e-014f 46
   9 1.8039903e-003 0.00e+000 2.54e-004 -11.0 2.54e-004    -  1.00e+000 5.68e-014f 45
iter    objective    inf_pr   inf_du lg(mu)  ||d||  lg(rg) alpha_du alpha_pr  ls
  10 1.8039903e-003 0.00e+000 2.54e-004 -11.0 2.54e-004    -  1.00e+000 5.68e-014f 45
  11 1.8039903e-003 0.00e+000 2.54e-004 -11.0 2.54e-004    -  1.00e+000 2.84e-014f 46
  12 1.8039903e-003 0.00e+000 2.54e-004 -11.0 2.54e-004    -  1.00e+000 2.84e-014f 46
  13 1.8039931e-003 0.00e+000 2.28e-004 -11.0 2.54e-004    -  1.00e+000 1.00e+000w  1
  14 1.8041377e-003 0.00e+000 7.95e-006 -11.0 2.22e-003    -  1.00e+000 1.00e+000w  1

Number of Iterations....: 14

                                   (scaled)                 (unscaled)
Objective...............:  1.8041376617303193e-003   1.8041376617303193e-003
Dual infeasibility......:  7.9460032028286220e-006   7.9460032028286220e-006
Constraint violation....:  0.0000000000000000e+000   0.0000000000000000e+000
Complementarity.........:  0.0000000000000000e+000   0.0000000000000000e+000
Overall NLP error.......:  7.9460032028286220e-006   7.9460032028286220e-006


Number of objective function evaluations             = 425
Number of objective gradient evaluations             = 15
Number of equality constraint evaluations            = 0
Number of inequality constraint evaluations          = 0
Number of equality constraint Jacobian evaluations   = 0
Number of inequality constraint Jacobian evaluations = 0
Number of Lagrangian Hessian evaluations             = 0
Total CPU secs in IPOPT (w/o function evaluations)   =      0.558
Total CPU secs in NLP function evaluations           =     22.917

EXIT: Optimal Solution Found.
